Route #1: 29 44 1 45 8 
Route #2: 27 54 23 52 50 48 18 
Route #3: 4 7 30 22 19 13 28 
Route #4: 41 36 5 16 38 40 53 10 12 
Route #5: 15 11 2 51 
Route #6: 37 3 46 14 20 26 
Route #7: 47 39 49 9 35 43 
Route #8: 31 42 17 34 33 21 
Route #9: 25 24 6 32 
cost 1283.22
execution_time 25.304
